0
Node Left Objective IInf Best_Integer Best_Bound ItCnt Gap
0 0 0.0000 6 0.0000 77
0 0 0.0000 5 Cuts:20 88
0 0 0.0000 5 Cuts:5 96
0 0 0.0000 5 Cuts:6 107
0 2 0.0000 5 0.0000 107 0 0
CPXPARAM_MIP_Cuts_LiftProj-MIRCut:LiftProj 1
CPXPARAM_MIP_Cuts_LiftProj-MIRCut:MIRCut 3
1
Node Left Objective IInf Best_Integer Best_Bound ItCnt Gap
0 0 0.0000 4 0.0000 57
0 2 0.0000 4 0.0000 57 0 0
CPXPARAM_MIP_Cuts_LiftProj-MIRCut:LiftProj 0
CPXPARAM_MIP_Cuts_LiftProj-MIRCut:MIRCut 0
2
Node Left Objective IInf Best_Integer Best_Bound ItCnt Gap
0 0 0.0000 6 0.0000 57
0 0 0.0000 6 LiftProj:4 67
0 0 0.0000 5 Cuts:5 73
0 2 0.0000 5 0.0000 73 0 0
CPXPARAM_MIP_Cuts_LiftProj-MIRCut:LiftProj 1
CPXPARAM_MIP_Cuts_LiftProj-MIRCut:MIRCut 2
3
Node Left Objective IInf Best_Integer Best_Bound ItCnt Gap
0 0 0 0.0000 0.0000 19 0.00% 0
CPXPARAM_MIP_Cuts_LiftProj-MIRCut:LiftProj 0
CPXPARAM_MIP_Cuts_LiftProj-MIRCut:MIRCut 0
4
Node Left Objective IInf Best_Integer Best_Bound ItCnt Gap
0 0 0.0000 7 0.0000 62
0 0 0.0000 7 Cuts:20 72
0 0 0.0000 6 Cuts:10 79
0 2 0.0000 6 0.0000 79 0 0
CPXPARAM_MIP_Cuts_LiftProj-MIRCut:LiftProj 3
CPXPARAM_MIP_Cuts_LiftProj-MIRCut:MIRCut 1
5
Node Left Objective IInf Best_Integer Best_Bound ItCnt Gap
0 0 0.0000 3 0.0000 48
0 0 0.0000 2 MIRcuts:1 87
0 0 0.0000 2 MIRcuts:1 88
0 2 0.0000 3 0.0000 88 0 0
CPXPARAM_MIP_Cuts_LiftProj-MIRCut:LiftProj 1
CPXPARAM_MIP_Cuts_LiftProj-MIRCut:MIRCut 0
6
Node Left Objective IInf Best_Integer Best_Bound ItCnt Gap
0 0 0.0000 5 0.0000 26
0 0 0.0000 2 MIRcuts:11 56
0 2 0.0000 3 0.0000 56 0 0
CPXPARAM_MIP_Cuts_LiftProj-MIRCut:LiftProj 8
CPXPARAM_MIP_Cuts_LiftProj-MIRCut:MIRCut 0
7
Node Left Objective IInf Best_Integer Best_Bound ItCnt Gap
0 0 0 0.0000 0.0000 28 0.00% 0
CPXPARAM_MIP_Cuts_LiftProj-MIRCut:LiftProj 0
CPXPARAM_MIP_Cuts_LiftProj-MIRCut:MIRCut 0
8
Node Left Objective IInf Best_Integer Best_Bound ItCnt Gap
0 0 0.0000 8 0.0000 65
0 0 0.0000 6 Cuts:16 76
0 0 0.0000 5 Cuts:10 93
0 0 0.0000 2 Cuts:4 101
0 0 0.0000 2 LiftProj:1 104
0 2 0.0000 2 0.0000 104 0 0
CPXPARAM_MIP_Cuts_LiftProj-MIRCut:LiftProj 0
CPXPARAM_MIP_Cuts_LiftProj-MIRCut:MIRCut 3
9
Node Left Objective IInf Best_Integer Best_Bound ItCnt Gap
0 0 0.0000 4 0.0000 55
0 0 0.0000 4 MIRcuts:3 96
0 2 0.0000 4 0.0000 96 0 0
CPXPARAM_MIP_Cuts_LiftProj-MIRCut:LiftProj 2
CPXPARAM_MIP_Cuts_LiftProj-MIRCut:MIRCut 0
10
Node Left Objective IInf Best_Integer Best_Bound ItCnt Gap
0 0 0.0000 5 0.0000 71
0 0 0.0000 4 Cuts:22 76
0 0 0.0000 4 Cuts:9 79
0 0 0.0000 5 LiftProj:4 87
0 2 0.0000 5 0.0000 87 0 0
CPXPARAM_MIP_Cuts_LiftProj-MIRCut:LiftProj 0
CPXPARAM_MIP_Cuts_LiftProj-MIRCut:MIRCut 4
11
Node Left Objective IInf Best_Integer Best_Bound ItCnt Gap
0 0 0.0000 2 0.0000 41
0 0 0.0000 2 MIRcuts:17 58
0 2 0.0000 2 0.0000 58 0 0
CPXPARAM_MIP_Cuts_LiftProj-MIRCut:LiftProj 7
CPXPARAM_MIP_Cuts_LiftProj-MIRCut:MIRCut 0
12
Node Left Objective IInf Best_Integer Best_Bound ItCnt Gap
0 0 0.0000 4 0.0000 55
0 0 0.0000 4 MIRcuts:9 58
0 0 0.0000 5 MIRcuts:9 63
0 2 0.0000 5 0.0000 63 0 0
CPXPARAM_MIP_Cuts_LiftProj-MIRCut:LiftProj 6
CPXPARAM_MIP_Cuts_LiftProj-MIRCut:MIRCut 0
13
Node Left Objective IInf Best_Integer Best_Bound ItCnt Gap
0 0 0.0000 6 0.0000 57
0 0 0.0000 8 MIRcuts:12 87
0 2 0.0000 9 0.0000 87 0 0
CPXPARAM_MIP_Cuts_LiftProj-MIRCut:LiftProj 5
CPXPARAM_MIP_Cuts_LiftProj-MIRCut:MIRCut 0
14
Node Left Objective IInf Best_Integer Best_Bound ItCnt Gap
0 0 0.0000 2 0.0000 30
0 0 0.0000 2 Cuts:24 74
0 2 0.0000 2 0.0000 74 0 0
CPXPARAM_MIP_Cuts_LiftProj-MIRCut:LiftProj 1
CPXPARAM_MIP_Cuts_LiftProj-MIRCut:MIRCut 1
15
Node Left Objective IInf Best_Integer Best_Bound ItCnt Gap
0 0 0.0000 1 0.0000 35
0 0 0.0000 2 MIRcuts:6 77
0 2 0.0000 2 0.0000 77 0 0
CPXPARAM_MIP_Cuts_LiftProj-MIRCut:LiftProj 2
CPXPARAM_MIP_Cuts_LiftProj-MIRCut:MIRCut 0
16
Node Left Objective IInf Best_Integer Best_Bound ItCnt Gap
0 0 0.0000 5 0.0000 63
0 0 0.0000 4 MIRcuts:14 68
0 0 0.0000 4 Cuts:5 72
0 0 0.0000 4 Cuts:6 75
0 2 0.0000 4 0.0000 75 0 0
CPXPARAM_MIP_Cuts_LiftProj-MIRCut:LiftProj 1
CPXPARAM_MIP_Cuts_LiftProj-MIRCut:MIRCut 3
17
Node Left Objective IInf Best_Integer Best_Bound ItCnt Gap
0 0 0.0000 4 0.0000 48
0 2 0.0000 4 0.0000 48 0 0
CPXPARAM_MIP_Cuts_LiftProj-MIRCut:LiftProj 0
CPXPARAM_MIP_Cuts_LiftProj-MIRCut:MIRCut 0
18
Node Left Objective IInf Best_Integer Best_Bound ItCnt Gap
0 0 0.0000 4 0.0000 28
0 2 0.0000 4 0.0000 51 0 0
CPXPARAM_MIP_Cuts_LiftProj-MIRCut:LiftProj 0
CPXPARAM_MIP_Cuts_LiftProj-MIRCut:MIRCut 0
19
Node Left Objective IInf Best_Integer Best_Bound ItCnt Gap
0 0 0 0.0000 0.0000 40 0.00% 0
CPXPARAM_MIP_Cuts_LiftProj-MIRCut:LiftProj 0
CPXPARAM_MIP_Cuts_LiftProj-MIRCut:MIRCut 0
20
Node Left Objective IInf Best_Integer Best_Bound ItCnt Gap
0 0 0.0000 6 0.0000 54
0 0 0.0000 6 Cuts:19 119
0 0 0.0000 4 Cuts:14 122
0 0 0.0000 6 Cuts:10 126
0 2 0.0000 8 0.0000 126 0 0
CPXPARAM_MIP_Cuts_LiftProj-MIRCut:LiftProj 0
CPXPARAM_MIP_Cuts_LiftProj-MIRCut:MIRCut 4
21
Node Left Objective IInf Best_Integer Best_Bound ItCnt Gap
0 0 0.0000 3 0.0000 52
0 2 0.0000 4 0.0000 90 0 0
CPXPARAM_MIP_Cuts_LiftProj-MIRCut:LiftProj 0
CPXPARAM_MIP_Cuts_LiftProj-MIRCut:MIRCut 0
22
Node Left Objective IInf Best_Integer Best_Bound ItCnt Gap
0 0 0.0000 3 0.0000 18
0 2 0.0000 2 0.0000 44 0 0
CPXPARAM_MIP_Cuts_LiftProj-MIRCut:LiftProj 0
CPXPARAM_MIP_Cuts_LiftProj-MIRCut:MIRCut 0
23
Node Left Objective IInf Best_Integer Best_Bound ItCnt Gap
0 0 0.0000 4 0.0000 23
0 0 0.0000 4 MIRcuts:31 49
0 0 0.0000 5 MIRcuts:10 59
0 2 0.0000 6 0.0000 59 0 0
CPXPARAM_MIP_Cuts_LiftProj-MIRCut:LiftProj 5
CPXPARAM_MIP_Cuts_LiftProj-MIRCut:MIRCut 0
24
Node Left Objective IInf Best_Integer Best_Bound ItCnt Gap
0 0 0.0000 3 0.0000 53
0 0 0.0000 2 Cuts:23 64
0 0 0.0000 2 MIRcuts:1 65
0 0 0.0000 3 MIRcuts:1 66
0 2 0.0000 3 0.0000 66 0 0
CPXPARAM_MIP_Cuts_LiftProj-MIRCut:LiftProj 2
CPXPARAM_MIP_Cuts_LiftProj-MIRCut:MIRCut 1
25
Node Left Objective IInf Best_Integer Best_Bound ItCnt Gap
0 0 0.0000 6 0.0000 52
0 2 0.0000 6 0.0000 52 0 0
CPXPARAM_MIP_Cuts_LiftProj-MIRCut:LiftProj 0
CPXPARAM_MIP_Cuts_LiftProj-MIRCut:MIRCut 0
26
Node Left Objective IInf Best_Integer Best_Bound ItCnt Gap
0 0 0 0.0000 0.0000 14 0.00% 0
CPXPARAM_MIP_Cuts_LiftProj-MIRCut:LiftProj 0
CPXPARAM_MIP_Cuts_LiftProj-MIRCut:MIRCut 0
27
Node Left Objective IInf Best_Integer Best_Bound ItCnt Gap
0 0 0 0.0000 0.0000 19 0.00% 0
CPXPARAM_MIP_Cuts_LiftProj-MIRCut:LiftProj 0
CPXPARAM_MIP_Cuts_LiftProj-MIRCut:MIRCut 0
28
Node Left Objective IInf Best_Integer Best_Bound ItCnt Gap
0 0 0.0000 6 0.0000 62
0 0 0.0000 7 Cuts:15 70
0 0 0.0000 5 Cuts:13 79
0 0 0.0000 6 Cuts:6 85
0 2 0.0000 6 0.0000 85 0 0
CPXPARAM_MIP_Cuts_LiftProj-MIRCut:LiftProj 2
CPXPARAM_MIP_Cuts_LiftProj-MIRCut:MIRCut 2
29
Node Left Objective IInf Best_Integer Best_Bound ItCnt Gap
0 0 0.0000 4 0.0000 48
0 2 0.0000 4 0.0000 99 0 0
CPXPARAM_MIP_Cuts_LiftProj-MIRCut:LiftProj 0
CPXPARAM_MIP_Cuts_LiftProj-MIRCut:MIRCut 0
30
Node Left Objective IInf Best_Integer Best_Bound ItCnt Gap
0 0 0 0.0000 0.0000 20 0.00% 0
CPXPARAM_MIP_Cuts_LiftProj-MIRCut:LiftProj 0
CPXPARAM_MIP_Cuts_LiftProj-MIRCut:MIRCut 0
31
Node Left Objective IInf Best_Integer Best_Bound ItCnt Gap
0 0 0 0.0000 0.0000 27 0.00% 0
CPXPARAM_MIP_Cuts_LiftProj-MIRCut:LiftProj 0
CPXPARAM_MIP_Cuts_LiftProj-MIRCut:MIRCut 0
32
Node Left Objective IInf Best_Integer Best_Bound ItCnt Gap
0 0 0.0000 9 0.0000 59
0 0 0.0000 9 Cuts:20 69
0 0 0.0000 8 Cuts:16 78
0 2 0.0000 8 0.0000 78 0 0
CPXPARAM_MIP_Cuts_LiftProj-MIRCut:LiftProj 2
CPXPARAM_MIP_Cuts_LiftProj-MIRCut:MIRCut 3
33
Node Left Objective IInf Best_Integer Best_Bound ItCnt Gap
0 0 0.0000 7 0.0000 61
0 0 0.0000 7 LiftProj:1 63
0 0 0.0000 8 MIRcuts:16 71
0 2 0.0000 8 0.0000 71 0 0
CPXPARAM_MIP_Cuts_LiftProj-MIRCut:LiftProj 5
CPXPARAM_MIP_Cuts_LiftProj-MIRCut:MIRCut 1
34
Node Left Objective IInf Best_Integer Best_Bound ItCnt Gap
0 0 0.0000 3 0.0000 40
0 0 0.0000 3 MIRcuts:2 73
0 2 0.0000 3 0.0000 73 0 0
CPXPARAM_MIP_Cuts_LiftProj-MIRCut:LiftProj 1
CPXPARAM_MIP_Cuts_LiftProj-MIRCut:MIRCut 0
35
Node Left Objective IInf Best_Integer Best_Bound ItCnt Gap
0 0 0 0.0000 0.0000 28 0.00% 0
CPXPARAM_MIP_Cuts_LiftProj-MIRCut:LiftProj 0
CPXPARAM_MIP_Cuts_LiftProj-MIRCut:MIRCut 0
36
Node Left Objective IInf Best_Integer Best_Bound ItCnt Gap
0 0 0.0000 8 0.0000 61
0 0 0.0000 9 Cuts:34 76
0 0 0.0000 7 Cuts:6 93
0 0 0.0000 9 Cuts:6 115
0 2 0.0000 9 0.0000 115 0 0
CPXPARAM_MIP_Cuts_LiftProj-MIRCut:LiftProj 0
CPXPARAM_MIP_Cuts_LiftProj-MIRCut:MIRCut 5
37
Node Left Objective IInf Best_Integer Best_Bound ItCnt Gap
0 0 0.0000 5 0.0000 63
0 2 0.0000 6 0.0000 63 0 0
CPXPARAM_MIP_Cuts_LiftProj-MIRCut:LiftProj 0
CPXPARAM_MIP_Cuts_LiftProj-MIRCut:MIRCut 0
38
Node Left Objective IInf Best_Integer Best_Bound ItCnt Gap
0 0 0.0000 3 0.0000 39
0 0 0.0000 2 MIRcuts:3 57
0 2 0.0000 2 0.0000 57 0 0
CPXPARAM_MIP_Cuts_LiftProj-MIRCut:LiftProj 1
CPXPARAM_MIP_Cuts_LiftProj-MIRCut:MIRCut 0
39
Node Left Objective IInf Best_Integer Best_Bound ItCnt Gap
0 0 0 0.0000 0.0000 28 0.00% 0
CPXPARAM_MIP_Cuts_LiftProj-MIRCut:LiftProj 0
CPXPARAM_MIP_Cuts_LiftProj-MIRCut:MIRCut 0
